PROBLEM NAME: eil51_n9
KNAPSACK DATA TYPE: multiple strongly correlated
DIMENSION: 9
NUMBER OF ITEMS: 40
CAPACITY OF KNAPSACK: 18770
MIN SPEED: 0.1
MAX SPEED: 1
RENTING RATIO: 25.38
EDGE_WEIGHT_TYPE: CEIL_2D
NODE_COORD_SECTION	(INDEX, X, Y):
1	17	63
2	31	62
3	36	16
4	52	41
5	27	23
6	62	63
7	32	22
8	5	6
9	56	37
ITEMS SECTION	(INDEX, PROFIT, WEIGHT, ASSIGNED NODE NUMBER):
1	1171	971	2
2	1125	925	2
3	1103	903	2
4	1098	898	2
5	1091	891	2
6	1087	887	6
7	1067	867	6
8	1032	832	6
9	1032	832	6
10	1008	808	6
11	1001	801	4
12	927	727	4
13	916	716	4
14	910	710	4
15	832	632	4
16	802	602	9
17	772	572	9
18	748	548	9
19	737	537	9
20	718	518	9
21	714	514	3
22	648	348	3
23	634	434	3
24	631	431	3
25	583	383	3
26	583	383	7
27	577	377	7
28	543	343	7
29	508	308	7
30	481	281	7
31	472	272	5
32	439	239	5
33	438	138	5
34	418	218	5
35	412	212	5
36	365	165	8
37	316	116	8
38	311	111	8
39	306	106	8
40	291	91	8
